181 300 240 82 60 214 120 67 267 251 12 88 112 207 282 213 129 153 160 150 260 61 113 252 266 63 34 291 31 292 291 101 272 282 182 83 247 54 202 214 56 213 1 167 171 282 132 299 134 43 148 145 103 12 96 121 127 181 163 157 224 205 9 195 186 243 30 185 48 231 98 103 195 98 22 65 132 153 63 17 247 262 162 102 26 257 274 152 190 136 60 113 41 121 60 278 63 89 162 110 19 259 264 213 109 285 277 240 189 91 256 136 104 169 289 181 178 262 32 67 97 144 231 189 264 290 167 78 78 80 187 148 39 202 60 199 187 88 138 127 230 145 14 86 14 2 266 243 15 50 9 112 193 239 300 208 229 218 285 58 298 171 206 88 124 17 286 10 157 175 189 86 71 202 223 136 256 189 78 270 290 86 133 